(set-logic QF_S)
(declare-fun var0 () String)
(assert (RegexIn var0 (RegexConcat (RegexPlus (RegexStar (RegexUnion (RegexUnion (RegexUnion (RegexPlus (RegexUnion (RegexStar (RegexStar (RegexPlus (RegexStar (RegexStar (RegexUnion (Str2Reg "0") (Str2Reg "11"))))))) (RegexStar (RegexPlus (RegexStar (RegexPlus (RegexUnion (RegexUnion (Str2Reg "2") (Str2Reg "3")) (RegexUnion (Str2Reg "444") (Str2Reg "55"))))))))) (RegexPlus (RegexPlus (RegexStar (RegexPlus (RegexStar (RegexUnion (RegexUnion (RegexPlus (Str2Reg "6")) (RegexPlus (Str2Reg "77"))) (RegexUnion (RegexStar (Str2Reg "888")) (RegexStar (Str2Reg "999")))))))))) (RegexUnion (RegexUnion (RegexUnion (RegexUnion (RegexUnion (RegexStar (RegexStar (RegexPlus (RegexStar (Str2Reg "a"))))) (RegexStar (RegexStar (RegexUnion (RegexPlus (Str2Reg "b")) (RegexPlus (Str2Reg "c")))))) (RegexUnion (RegexPlus (RegexUnion (RegexUnion (RegexPlus (Str2Reg "dd")) (RegexPlus (Str2Reg "ee"))) (RegexUnion (RegexUnion (Str2Reg "f") (Str2Reg "ggg")) (RegexUnion (Str2Reg "hh") (Str2Reg "i"))))) (RegexPlus (RegexPlus (RegexPlus (RegexPlus (Str2Reg "j"))))))) (RegexUnion (RegexStar (RegexUnion (RegexUnion (RegexStar (RegexStar (Str2Reg "k"))) (RegexStar (RegexStar (Str2Reg "lll")))) (RegexUnion (RegexUnion (RegexStar (Str2Reg "mm")) (RegexStar (Str2Reg "nnn"))) (RegexUnion (RegexPlus (Str2Reg "o")) (RegexPlus (Str2Reg "ppp")))))) (RegexStar (RegexPlus (RegexStar (RegexUnion (RegexStar (Str2Reg "qqq")) (RegexStar (Str2Reg "rr")))))))) (RegexUnion (RegexStar (RegexStar (RegexPlus (RegexStar (RegexStar (RegexUnion (Str2Reg "sss") (Str2Reg "tt"))))))) (RegexStar (RegexPlus (RegexStar (RegexUnion (RegexStar (RegexUnion (Str2Reg "uu") (Str2Reg "vv"))) (RegexStar (RegexStar (Str2Reg "www"))))))))) (RegexUnion (RegexStar (RegexStar (RegexUnion (RegexUnion (RegexStar (RegexStar (RegexUnion (Str2Reg "x") (Str2Reg "y")))) (RegexStar (RegexPlus (RegexPlus (Str2Reg "zz"))))) (RegexUnion (RegexUnion (RegexUnion (RegexStar (Str2Reg "AAA")) (RegexStar (Str2Reg "BBB"))) (RegexUnion (RegexPlus (Str2Reg "CC")) (RegexPlus (Str2Reg "DDD")))) (RegexUnion (RegexUnion (RegexUnion (Str2Reg "E") (Str2Reg "FFF")) (RegexUnion (Str2Reg "GGG") (Str2Reg "HHH"))) (RegexUnion (RegexPlus (Str2Reg "III")) (RegexPlus (Str2Reg "J")))))))) (RegexStar (RegexStar (RegexPlus (RegexUnion (RegexPlus (RegexUnion (RegexUnion (Str2Reg "KK") (Str2Reg "L")) (RegexUnion (Str2Reg "MM") (Str2Reg "N")))) (RegexPlus (RegexStar (RegexStar (Str2Reg "OO"))))))))))) (RegexUnion (RegexUnion (RegexUnion (RegexUnion (RegexPlus (RegexUnion (RegexStar (RegexUnion (RegexUnion (RegexUnion (Str2Reg "PPP") (Str2Reg "QQQ")) (RegexUnion (Str2Reg "RR") (Str2Reg "SS"))) (RegexUnion (RegexPlus (Str2Reg "TT")) (RegexPlus (Str2Reg "UU"))))) (RegexStar (RegexUnion (RegexStar (RegexStar (Str2Reg "VV"))) (RegexStar (RegexUnion (Str2Reg "W") (Str2Reg "XXX"))))))) (RegexPlus (RegexPlus (RegexPlus (RegexStar (RegexUnion (RegexPlus (Str2Reg "YY")) (RegexPlus (Str2Reg "ZZZ")))))))) (RegexUnion (RegexUnion (RegexPlus (RegexPlus (RegexPlus (RegexStar (RegexStar (Str2Reg "!!!")))))) (RegexPlus (RegexUnion (RegexPlus (RegexStar (RegexStar (Str2Reg "\"")))) (RegexPlus (RegexUnion (RegexStar (Str2Reg "##")) (RegexStar (Str2Reg "$$"))))))) (RegexUnion (RegexUnion (RegexStar (RegexUnion (RegexUnion (RegexStar (Str2Reg "%%%")) (RegexStar (Str2Reg "&&&"))) (RegexUnion (RegexPlus (Str2Reg "'")) (RegexPlus (Str2Reg "((("))))) (RegexStar (RegexPlus (RegexStar (RegexStar (Str2Reg "))")))))) (RegexUnion (RegexStar (RegexStar (RegexPlus (RegexUnion (Str2Reg "*") (Str2Reg "+"))))) (RegexStar (RegexPlus (RegexPlus (RegexStar (Str2Reg ",,,"))))))))) (RegexUnion (RegexPlus (RegexUnion (RegexUnion (RegexUnion (RegexUnion (RegexPlus (RegexUnion (Str2Reg "--") (Str2Reg "."))) (RegexPlus (RegexUnion (Str2Reg "//") (Str2Reg "::")))) (RegexUnion (RegexStar (RegexPlus (Str2Reg ";"))) (RegexStar (RegexUnion (Str2Reg "<<<") (Str2Reg "="))))) (RegexUnion (RegexUnion (RegexUnion (RegexStar (Str2Reg ">>>")) (RegexStar (Str2Reg "???"))) (RegexUnion (RegexStar (Str2Reg "@@")) (RegexStar (Str2Reg "[[[")))) (RegexUnion (RegexPlus (RegexUnion (Str2Reg "\\\\") (Str2Reg "]]"))) (RegexPlus (RegexPlus (Str2Reg "^^^")))))) (RegexUnion (RegexPlus (RegexUnion (RegexUnion (RegexUnion (Str2Reg "___") (Str2Reg "``")) (RegexUnion (Str2Reg "{") (Str2Reg "|"))) (RegexUnion (RegexUnion (Str2Reg "}}}") (Str2Reg "~~~")) (RegexUnion (Str2Reg "000") (Str2Reg "111"))))) (RegexPlus (RegexUnion (RegexUnion (RegexPlus (Str2Reg "222")) (RegexPlus (Str2Reg "333"))) (RegexUnion (RegexPlus (Str2Reg "44")) (RegexPlus (Str2Reg "55")))))))) (RegexPlus (RegexPlus (RegexStar (RegexStar (RegexPlus (RegexPlus (RegexUnion (Str2Reg "666") (Str2Reg "77")))))))))) (RegexUnion (RegexUnion (RegexPlus (RegexStar (RegexUnion (RegexPlus (RegexPlus (RegexUnion (RegexUnion (Str2Reg "88") (Str2Reg "9")) (RegexUnion (Str2Reg "aa") (Str2Reg "bb"))))) (RegexPlus (RegexStar (RegexPlus (RegexPlus (Str2Reg "c")))))))) (RegexPlus (RegexUnion (RegexUnion (RegexStar (RegexPlus (RegexUnion (RegexStar (Str2Reg "dd")) (RegexStar (Str2Reg "ee"))))) (RegexStar (RegexPlus (RegexPlus (RegexStar (Str2Reg "fff")))))) (RegexUnion (RegexUnion (RegexStar (RegexStar (RegexStar (Str2Reg "gg")))) (RegexStar (RegexPlus (RegexUnion (Str2Reg "hh") (Str2Reg "iii"))))) (RegexUnion (RegexPlus (RegexStar (RegexStar (Str2Reg "jjj")))) (RegexPlus (RegexStar (RegexUnion (Str2Reg "kk") (Str2Reg "l"))))))))) (RegexUnion (RegexUnion (RegexPlus (RegexStar (RegexStar (RegexStar (RegexStar (RegexStar (Str2Reg "mm"))))))) (RegexPlus (RegexPlus (RegexStar (RegexStar (RegexPlus (RegexStar (Str2Reg "nnn")))))))) (RegexUnion (RegexPlus (RegexPlus (RegexPlus (RegexPlus (RegexPlus (RegexUnion (Str2Reg "ooo") (Str2Reg "p"))))))) (RegexPlus (RegexUnion (RegexPlus (RegexStar (RegexUnion (RegexUnion (Str2Reg "qqq") (Str2Reg "rrr")) (RegexUnion (Str2Reg "sss") (Str2Reg "ttt"))))) (RegexPlus (RegexStar (RegexUnion (RegexStar (Str2Reg "uuu")) (RegexStar (Str2Reg "vvv")))))))))))))) (RegexPlus (RegexPlus (RegexPlus (RegexUnion (RegexUnion (RegexUnion (RegexPlus (RegexPlus (RegexUnion (RegexUnion (RegexUnion (RegexPlus (RegexUnion (Str2Reg "w") (Str2Reg "xxx"))) (RegexPlus (RegexPlus (Str2Reg "yy")))) (RegexUnion (RegexStar (RegexStar (Str2Reg "zz"))) (RegexStar (RegexUnion (Str2Reg "A") (Str2Reg "BBB"))))) (RegexUnion (RegexStar (RegexUnion (RegexPlus (Str2Reg "C")) (RegexPlus (Str2Reg "DDD")))) (RegexStar (RegexUnion (RegexPlus (Str2Reg "EEE")) (RegexPlus (Str2Reg "FFF")))))))) (RegexPlus (RegexPlus (RegexUnion (RegexStar (RegexStar (RegexStar (RegexPlus (Str2Reg "GG"))))) (RegexStar (RegexStar (RegexPlus (RegexPlus (Str2Reg "H"))))))))) (RegexUnion (RegexStar (RegexPlus (RegexUnion (RegexUnion (RegexUnion (RegexStar (RegexStar (Str2Reg "II"))) (RegexStar (RegexUnion (Str2Reg "JJ") (Str2Reg "KK")))) (RegexUnion (RegexUnion (RegexPlus (Str2Reg "LL")) (RegexPlus (Str2Reg "MM"))) (RegexUnion (RegexPlus (Str2Reg "NN")) (RegexPlus (Str2Reg "OO"))))) (RegexUnion (RegexUnion (RegexStar (RegexPlus (Str2Reg "PP"))) (RegexStar (RegexUnion (Str2Reg "QQQ") (Str2Reg "RR")))) (RegexUnion (RegexStar (RegexUnion (Str2Reg "S") (Str2Reg "TT"))) (RegexStar (RegexPlus (Str2Reg "UU")))))))) (RegexStar (RegexPlus (RegexStar (RegexUnion (RegexStar (RegexUnion (RegexUnion (Str2Reg "V") (Str2Reg "WWW")) (RegexUnion (Str2Reg "X") (Str2Reg "YY")))) (RegexStar (RegexPlus (RegexUnion (Str2Reg "ZZ") (Str2Reg "!!")))))))))) (RegexUnion (RegexUnion (RegexStar (RegexStar (RegexStar (RegexUnion (RegexUnion (RegexPlus (RegexUnion (Str2Reg "\"\"") (Str2Reg "#"))) (RegexPlus (RegexStar (Str2Reg "$$")))) (RegexUnion (RegexStar (RegexStar (Str2Reg "%%%"))) (RegexStar (RegexStar (Str2Reg "&")))))))) (RegexStar (RegexStar (RegexPlus (RegexStar (RegexPlus (RegexPlus (RegexUnion (Str2Reg "'''") (Str2Reg "((("))))))))) (RegexUnion (RegexStar (RegexStar (RegexPlus (RegexStar (RegexPlus (RegexStar (RegexPlus (Str2Reg "))")))))))) (RegexStar (RegexStar (RegexUnion (RegexPlus (RegexPlus (RegexPlus (RegexPlus (Str2Reg "**"))))) (RegexPlus (RegexUnion (RegexPlus (RegexUnion (Str2Reg "+++") (Str2Reg ",,"))) (RegexPlus (RegexUnion (Str2Reg "---") (Str2Reg "...")))))))))))))))))
(assert (<= 15 (Length var0)))
(check-sat)